p wcnf 157 186 187 
1 24 -53 0 
1 141 120 0 
1 35 82 0 
1 157 120 0 
1 89 -93 0 
1 -2 59 0 
1 -134 57 0 
1 -7 43 0 
1 79 -156 0 
1 120 -46 0 
1 115 27 0 
1 84 50 0 
1 49 -106 0 
1 -127 -42 0 
1 2 -69 0 
1 95 106 0 
1 67 37 0 
1 -115 -47 0 
1 73 -91 0 
1 112 -52 0 
1 -47 -25 0 
1 28 55 0 
1 90 77 0 
1 -16 140 0 
1 -104 121 0 
1 -130 98 0 
1 -42 -128 0 
1 102 -126 0 
1 90 29 0 
1 -126 -94 0 
1 87 49 0 
1 27 -10 0 
1 -1 -102 0 
1 30 -134 0 
1 -96 -140 0 
1 61 -47 0 
1 9 -19 0 
1 102 -9 0 
1 -62 6 0 
1 72 -40 0 
1 130 152 0 
1 -94 151 0 
1 94 -117 0 
1 -30 109 0 
1 -134 130 0 
1 -137 96 0 
1 88 -7 0 
1 145 47 0 
1 -57 -48 0 
1 64 -1 0 
1 116 31 0 
1 151 -35 0 
1 82 -17 0 
1 77 -95 0 
1 -148 -1 0 
1 -143 -70 0 
1 -61 -118 0 
1 -98 -95 0 
1 -106 -43 0 
1 -44 -83 0 
1 40 138 0 
1 99 74 0 
1 -71 -82 0 
1 112 -6 0 
1 77 -50 0 
1 -99 -94 0 
1 -54 -15 0 
1 108 55 0 
1 43 114 0 
1 105 -140 0 
1 56 -120 0 
1 -105 84 0 
1 82 63 0 
1 -4 -39 0 
1 -13 155 0 
1 -39 155 0 
1 80 -70 0 
1 -43 18 0 
1 -150 -68 0 
1 -46 -116 0 
1 31 -12 0 
1 63 101 0 
1 -86 -29 0 
1 -13 20 0 
1 -82 -16 0 
1 -112 -43 0 
1 64 150 0 
1 55 53 0 
1 105 22 0 
1 92 -149 0 
1 -80 -10 0 
1 78 -17 0 
1 -87 55 0 
1 -125 -113 0 
1 115 -42 0 
1 96 111 0 
1 -140 -80 0 
1 -14 143 0 
1 -118 141 0 
1 149 -151 0 
1 129 118 0 
1 59 -128 0 
1 -25 12 0 
1 -69 91 0 
1 118 3 0 
1 140 153 0 
1 -130 -15 0 
1 26 88 0 
1 -97 -10 0 
1 -62 119 0 
1 63 57 0 
1 -82 -108 0 
1 2 100 0 
1 -71 -83 0 
1 116 -22 0 
1 -32 76 0 
1 100 1 0 
1 -118 -145 0 
1 65 22 0 
1 -131 30 0 
1 -1 -91 0 
1 -93 -142 0 
1 -33 38 0 
1 -39 -72 0 
1 -48 -44 0 
1 35 139 0 
1 -5 54 0 
1 -102 26 0 
1 129 -148 0 
1 146 134 0 
1 49 130 0 
1 -157 8 0 
1 -47 17 0 
1 -100 -150 0 
1 89 -47 0 
1 -128 101 0 
1 95 144 0 
1 10 12 0 
1 74 -148 0 
1 89 149 0 
1 92 -45 0 
1 79 -19 0 
1 143 -44 0 
1 -67 -43 0 
1 -110 -128 0 
1 63 -38 0 
1 -106 2 0 
1 92 -61 0 
1 -10 2 0 
1 -11 -55 0 
1 -133 79 0 
1 71 -139 0 
1 73 -138 0 
1 -74 10 0 
1 -133 128 0 
1 -32 128 0 
1 -137 77 0 
1 45 -55 0 
1 21 -84 0 
1 -44 112 0 
1 -103 -113 0 
1 -147 -37 0 
1 29 -40 0 
1 153 -88 0 
1 -119 70 0 
1 132 -83 0 
1 -135 -75 0 
1 -97 59 0 
1 -80 146 0 
1 92 -94 0 
1 137 -134 0 
1 -44 78 0 
1 -51 -57 0 
1 -10 156 0 
1 -72 -24 0 
1 114 -127 0 
1 -31 -97 0 
1 -122 155 0 
1 -36 80 0 
1 -65 -114 0 
1 -92 16 0 
1 64 -54 0 
1 68 -37 0 
1 -32 -25 0 
1 119 30 0 
1 113 -69 0 
